NAME MaterToy
ROWS
 N  OBJ
COLUMNS
    X[1]      OBJ       -1.5
    X[2]      OBJ       -4
    eta       OBJ       1
RHS
BOUNDS
 UP BND1      X[1]      1
 UP BND1      X[2]      1
 LO BND1      eta       -100
ENDATA
